20
190
0	1	122
0	2	25
0	3	119
0	4	338
0	5	139
0	6	22
0	7	28
0	8	132
0	9	47
0	10	112
0	11	196
0	12	3
0	13	34
0	14	101
0	15	143
0	16	238
0	17	136
0	18	66
0	19	3
1	2	337
1	3	306
1	4	307
1	5	90
1	6	58
1	7	27
1	8	22
1	9	56
1	10	94
1	11	46
1	12	114
1	13	123
1	14	181
1	15	27
1	16	25
1	17	26
1	18	566
1	19	61
2	3	26
2	4	250
2	5	63
2	6	53
2	7	161
2	8	315
2	9	107
2	10	9
2	11	95
2	12	66
2	13	13
2	14	51
2	15	42
2	16	129
2	17	69
2	18	14
2	19	126
3	4	796
3	5	41
3	6	132
3	7	49
3	8	129
3	9	84
3	10	199
3	11	80
3	12	44
3	13	106
3	14	114
3	15	30
3	16	6
3	17	241
3	18	74
3	19	81
4	5	91
4	6	19
4	7	4
4	8	360
4	9	189
4	10	638
4	11	21
4	12	218
4	13	26
4	14	8
4	15	34
4	16	3
4	17	23
4	18	93
4	19	83
5	6	18
5	7	15
5	8	9
5	9	94
5	10	20
5	11	54
5	12	10
5	13	29
5	14	8
5	15	18
5	16	335
5	17	102
5	18	25
5	19	80
6	7	60
6	8	53
6	9	523
6	10	16
6	11	62
6	12	257
6	13	82
6	14	44
6	15	94
6	16	17
6	17	52
6	18	160
6	19	44
7	8	73
7	9	243
7	10	248
7	11	132
7	12	315
7	13	94
7	14	211
7	15	91
7	16	20
7	17	68
7	18	144
7	19	116
8	9	234
8	10	55
8	11	45
8	12	98
8	13	10
8	14	70
8	15	21
8	16	153
8	17	85
8	18	63
8	19	125
9	10	27
9	11	6
9	12	216
9	13	561
9	14	71
9	15	231
9	16	49
9	17	68
9	18	142
9	19	87
10	11	78
10	12	6
10	13	195
10	14	48
10	15	18
10	16	117
10	17	58
10	18	43
10	19	56
11	12	17
11	13	68
11	14	31
11	15	31
11	16	122
11	17	8
11	18	257
11	19	54
12	13	39
12	14	157
12	15	163
12	16	46
12	17	188
12	18	58
12	19	161
13	14	122
13	15	48
13	16	78
13	17	98
13	18	179
13	19	120
14	15	15
14	16	365
14	17	15
14	18	51
14	19	219
15	16	128
15	17	22
15	18	142
15	19	129
16	17	159
16	18	167
16	19	78
17	18	124
17	19	158
18	19	45